g3 1 1 0	# problem 'r1336mzz(e)'
 2 0 14 0 0 	# vars, constraints, objectives, ranges, eqns
 0 13 0 0 0 0	# nonlinear constrs, objs; ccons: lin, nonlin, nd, nzlb
 0 0	# network constraints: nonlinear, linear
 0 2 0 	# nonlinear vars in constraints, objectives, both
 0 0 0 1	# linear network variables; functions; arith, flags
 0 0 0 0 0 	# discrete variables: binary, integer, nonlinear (b,c,o)
 0 20 	# nonzeros in Jacobian, obj. gradient
 0 0	# max name lengths: constraints, variables
 0 0 0 0 0	# common exprs: b,c,o,c1,o1
O0 0
o0
o54
4
o43
v0
o2
n3.0
o43
v1
o2
n15.891
o43
o0
o16
o44
o2
n-1.3629717740936238
v1
n1
o2
n14.143
o43
o0
o16
o44
o2
n-8.609025351275
v1
n1
n-17.583859885194016
O1 0
o5
v0
n-1.0
O2 0
o16
o5
v0
n-2.0
O3 0
o0
o54
3
o2
n3.0
o5
v1
n-1.0
o2
o2
n121.75744554308233
o5
o0
o16
o44
o2
n-8.609025351275
v1
n1.0
n-1.0
o44
o2
n-8.609025351275
v1
o2
o2
n21.658984462121776
o5
o0
o16
o44
o2
n-1.3629717740936238
v1
n1.0
n-1.0
o44
o2
n-1.3629717740936238
v1
n11.524417012948918
O4 0
o54
5
o2
n-3.0
o5
v1
n-2.0
o2
o2
n-1048.2129353868809
o5
o0
o16
o44
o2
n-8.609025351275
v1
n1.0
n-1.0
o44
o2
n-8.609025351275
v1
o2
o2
n-1048.2129353868809
o5
o0
o16
o44
o2
n-8.609025351275
v1
n1.0
n-2.0
o44
o2
n-17.21805070255
v1
o2
o2
n-29.52058447740435
o5
o0
o16
o44
o2
n-1.3629717740936238
v1
n1.0
n-1.0
o44
o2
n-1.3629717740936238
v1
o2
o2
n-29.52058447740435
o5
o0
o16
o44
o2
n-1.3629717740936238
v1
n1.0
n-2.0
o44
o2
n-2.7259435481872476
v1
O5 0
o54
15
o2
o2
n0.08297005
o5
v0
n4.0
v1
o2
o2
n1.1213658
v0
o5
v1
n0.117
o2
o2
n-2.0279038680756
v0
v1
o2
o2
n-0.3486706213113
o5
v0
n2.0
v1
o2
o2
n0.13227952
o5
v0
n3.0
o5
v1
n0.413
o2
o2
o2
n-1.3751844
v0
o5
v1
n2.44
o44
o16
o5
v0
n2.0
o2
o2
o2
n-1.3939029
o5
v0
n3.0
o5
v1
n2.51
o44
o16
o5
v0
n2.0
o2
o2
o2
n0.11190839
o5
v0
n2.0
o5
v1
n0.535
o44
o2
n-1.0
v0
o2
o2
o2
n-0.90635088
o5
v0
n2.0
o5
v1
n1.927
o44
o16
o5
v0
n2.0
o2
o2
o2
n-0.050014594
o5
v0
n7.0
o5
v1
n1.186
o44
o2
n-1.0
v0
o2
o2
o2
n1.7953748
v0
o5
v1
n0.876
o44
o0
o2
n-1.234
o5
o0
v0
n-1.23
n2
o2
n-1.237
o5
o0
v1
n-1.21
n2
o2
o2
o2
n2.0579712
v0
o5
v1
n1.23
o44
o0
o2
n-1.34
o5
o0
v0
n-0.751
n2
o2
n-0.384
o5
o0
v1
n-2.0
n2
o2
o2
o2
n-1.0433081
o5
v0
n3.0
o5
v1
n0.875
o44
o0
o2
n-1.13
o5
o0
v0
n-0.522
n2
o2
n-1.24
o5
o0
v1
n-1.216
n2
o2
o2
o2
n-1.2459808
o5
v0
n2.0
o5
v1
n0.5181
o44
o0
o2
n-1.15
o5
o0
v0
n-0.32
n2
o2
n-0.46
o5
o0
v1
n-2.27
n2
o2
o2
o2
n-0.49712249
o5
v0
n2.0
o5
v1
n0.86
o44
o0
o2
n-1.3
o5
o0
v0
n-1.22
n2
o2
n-1.326
o5
o0
v1
n-1.26
n2
O6 0
o54
24
o2
n1.1213658
o5
v1
n0.117
o2
o2
n2.0579712
o5
v1
n1.23
o44
o0
o2
n-0.384
o5
o0
v1
n-2.0
n2.0
o2
n-1.34
o5
o0
v0
n-0.751
n2.0
o2
o2
n0.39683856000000006
o5
v0
n2.0
o5
v1
n0.413
o2
o2
n0.3318802
v1
o5
v0
n3.0
o2
o2
n1.7953748
o5
v1
n0.876
o44
o0
o2
n-1.234
o5
o0
v0
n-1.23
n2.0
o2
n-1.237
o5
o0
v1
n-1.21
n2.0
o2
o2
n-0.6973412426226
v1
v0
o2
o2
n-1.3751844
o5
v1
n2.44
o44
o16
o5
v0
n2.0
o2
o2
o2
n2.7878058
o5
v0
n4.0
o5
v1
n2.51
o44
o16
o5
v0
n2.0
o2
o2
o2
n0.22381678
v0
o5
v1
n0.535
o44
o2
n-1.0
v0
o2
o2
o2
n1.81270176
o5
v0
n3.0
o5
v1
n1.927
o44
o16
o5
v0
n2.0
o2
o2
o2
n2.7503688
o5
v0
n2.0
o5
v1
n2.44
o44
o16
o5
v0
n2.0
o2
o2
o2
n0.050014594
o5
v0
n7.0
o5
v1
n1.186
o44
o2
n-1.0
v0
o2
o2
o2
n-0.99424498
v0
o5
v1
n0.86
o44
o0
o2
n-1.326
o5
o0
v1
n-1.26
n2.0
o2
n-1.3
o5
o0
v0
n-1.22
n2.0
o2
o2
o2
n-4.1817087
o5
v0
n2.0
o5
v1
n2.51
o44
o16
o5
v0
n2.0
o2
o2
o2
n-0.350102158
o5
v0
n6.0
o5
v1
n1.186
o44
o2
n-1.0
v0
o2
o2
o2
n-3.1299243
o5
v0
n2.0
o5
v1
n0.875
o44
o0
o2
n-1.13
o5
o0
v0
n-0.522
n2.0
o2
n-1.24
o5
o0
v1
n-1.216
n2.0
o2
o2
o2
n-0.11190839
o5
v0
n2.0
o5
v1
n0.535
o44
o2
n-1.0
v0
o2
o2
o2
n-1.81270176
v0
o5
v1
n1.927
o44
o16
o5
v0
n2.0
o2
o2
o2
n-2.4919616
v0
o5
v1
n0.5181
o44
o0
o2
n-1.15
o5
o0
v0
n-0.32
n2.0
o2
n-0.46
o5
o0
v1
n-2.27
n2.0
o2
o2
o2
o2
n2.0579712
v0
o5
v1
n1.23
o0
o2
n-2.68
v0
n2.01268
o44
o0
o2
n-0.384
o5
o0
v1
n-2.0
n2.0
o2
n-1.34
o5
o0
v0
n-0.751
n2.0
o2
o2
o2
o2
n1.7953748
v0
o5
v1
n0.876
o0
o2
n-2.468
v0
n3.03564
o44
o0
o2
n-1.234
o5
o0
v0
n-1.23
n2.0
o2
n-1.237
o5
o0
v1
n-1.21
n2.0
o2
o2
o2
o2
n-1.0433081
o5
v0
n3.0
o5
v1
n0.875
o0
o2
n-2.26
v0
n1.1797199999999999
o44
o0
o2
n-1.13
o5
o0
v0
n-0.522
n2.0
o2
n-1.24
o5
o0
v1
n-1.216
n2.0
o2
o2
o2
o2
n-0.49712249
o5
v0
n2.0
o5
v1
n0.86
o0
o2
n-2.6
v0
n3.172
o44
o0
o2
n-1.326
o5
o0
v1
n-1.26
n2.0
o2
n-1.3
o5
o0
v0
n-1.22
n2.0
o2
o2
o2
o2
n-1.2459808
o5
v0
n2.0
o5
v1
n0.5181
o0
o2
n-2.3
v0
n0.736
o44
o0
o2
n-1.15
o5
o0
v0
n-0.32
n2.0
o2
n-0.46
o5
o0
v1
n-2.27
n2.0
O7 0
o54
40
o2
o2
n0.7936771200000001
o5
v1
n0.413
v0
o2
o2
n0.22381678
o5
v1
n0.535
o44
o2
n-1.0
v0
o2
o2
n0.9956406
v1
o5
v0
n2.0
o2
o2
n-0.99424498
o5
v1
n0.86
o44
o0
o2
n-1.326
o5
o0
v1
n-1.26
n2.0
o2
n-1.3
o5
o0
v0
n-1.22
n2.0
o2
o2
n-1.81270176
o5
v1
n1.927
o44
o16
o5
v0
n2.0
o2
o2
n-2.4919616
o5
v1
n0.5181
o44
o0
o2
n-1.15
o5
o0
v0
n-0.32
n2.0
o2
n-0.46
o5
o0
v1
n-2.27
n2.0
o2
o2
o2
n9.063508800000001
o5
v1
n1.927
o5
v0
n2.0
o44
o16
o5
v0
n2.0
o2
o2
o2
n2.3578763059999996
o5
v1
n0.875
o5
v0
n3.0
o44
o0
o2
n-1.13
o5
o0
v0
n-0.522
n2.0
o2
n-1.24
o5
o0
v1
n-1.216
n2.0
o2
o2
o2
n2.0579712
o5
v1
n1.23
o0
o2
n-2.68
v0
n2.01268
o44
o0
o2
n-0.384
o5
o0
v1
n-2.0
n2.0
o2
n-1.34
o5
o0
v0
n-0.751
n2.0
o2
o2
o2
n19.5146406
o5
v1
n2.51
o5
v0
n3.0
o44
o16
o5
v0
n2.0
o2
o2
o2
n1.292518474
o5
v1
n0.86
o5
v0
n2.0
o44
o0
o2
n-1.326
o5
o0
v1
n-1.26
n2.0
o2
n-1.3
o5
o0
v0
n-1.22
n2.0
o2
o2
o2
n0.700204316
o5
v1
n1.186
o5
v0
n6.0
o44
o2
n-1.0
v0
o2
o2
o2
n0.11190839
o5
v1
n0.535
o5
v0
n2.0
o44
o2
n-1.0
v0
o2
o2
o2
n8.2511064
o5
v1
n2.44
v0
o44
o16
o5
v0
n2.0
o2
o2
o2
n2.86575584
o5
v1
n0.5181
o5
v0
n2.0
o44
o0
o2
n-1.15
o5
o0
v0
n-0.32
n2.0
o2
n-0.46
o5
o0
v1
n-2.27
n2.0
o2
o2
o2
n1.7953748
o5
v1
n0.876
o0
o2
n-2.468
v0
n3.03564
o44
o0
o2
n-1.234
o5
o0
v0
n-1.23
n2.0
o2
n-1.237
o5
o0
v1
n-1.21
n2.0
o2
o2
o2
n-4.4309850064
v0
o5
v1
n0.876
o44
o0
o2
n-1.234
o5
o0
v0
n-1.23
n2.0
o2
n-1.237
o5
o0
v1
n-1.21
n2.0
o2
o2
o2
n-4.4309850064
o5
v1
n0.876
o0
v0
n-1.23
o44
o0
o2
n-1.234
o5
o0
v0
n-1.23
n2.0
o2
n-1.237
o5
o0
v1
n-1.21
n2.0
o2
o2
o2
n-5.515362816
v0
o5
v1
n1.23
o44
o0
o2
n-0.384
o5
o0
v1
n-2.0
n2.0
o2
n-1.34
o5
o0
v0
n-0.751
n2.0
o2
o2
o2
n-5.515362816
o5
v1
n1.23
o0
v0
n-0.751
o44
o0
o2
n-0.384
o5
o0
v1
n-2.0
n2.0
o2
n-1.34
o5
o0
v0
n-0.751
n2.0
o2
o2
o2
n-2.100612948
o5
v1
n1.186
o5
v0
n5.0
o44
o2
n-1.0
v0
o2
o2
o2
n-8.3634174
o5
v1
n2.51
v0
o44
o16
o5
v0
n2.0
o2
o2
o2
n-5.5756116
o5
v1
n2.51
o5
v0
n5.0
o44
o16
o5
v0
n2.0
o2
o2
o2
n-6.2598486
o5
v1
n0.875
v0
o44
o0
o2
n-1.13
o5
o0
v0
n-0.522
n2.0
o2
n-1.24
o5
o0
v1
n-1.216
n2.0
o2
o2
o2
n-0.22381678
v0
o5
v1
n0.535
o44
o2
n-1.0
v0
o2
o2
o2
n-0.22381678
o5
v1
n0.535
v0
o44
o2
n-1.0
v0
o2
o2
o2
n-3.62540352
o5
v1
n1.927
o5
v0
n4.0
o44
o16
o5
v0
n2.0
o2
o2
o2
n-5.5007376
o5
v1
n2.44
o5
v0
n3.0
o44
o16
o5
v0
n2.0
o2
o2
o2
n-0.050014594
o5
v1
n1.186
o5
v0
n7.0
o44
o2
n-1.0
v0
o2
o2
o2
o2
n2.585036948
v0
o5
v1
n0.86
o0
v0
n-1.22
o44
o0
o2
n-1.326
o5
o0
v1
n-1.26
n2.0
o2
n-1.3
o5
o0
v0
n-1.22
n2.0
o2
o2
o2
o2
n7.073628917999999
o5
v1
n0.875
o5
v0
n2.0
o0
v0
n-0.522
o44
o0
o2
n-1.13
o5
o0
v0
n-0.522
n2.0
o2
n-1.24
o5
o0
v1
n-1.216
n2.0
o2
o2
o2
o2
n5.73151168
v0
o5
v1
n0.5181
o0
v0
n-0.32
o44
o0
o2
n-1.15
o5
o0
v0
n-0.32
n2.0
o2
n-0.46
o5
o0
v1
n-2.27
n2.0
o2
o2
o2
o2
n-0.99424498
o5
v1
n0.86
v0
o0
o2
n-2.6
v0
n3.172
o44
o0
o2
n-1.326
o5
o0
v1
n-1.26
n2.0
o2
n-1.3
o5
o0
v0
n-1.22
n2.0
o2
o2
o2
o2
n-3.1299243
o5
v1
n0.875
o5
v0
n2.0
o0
o2
n-2.26
v0
n1.1797199999999999
o44
o0
o2
n-1.13
o5
o0
v0
n-0.522
n2.0
o2
n-1.24
o5
o0
v1
n-1.216
n2.0
o2
o2
o2
o2
n-2.4919616
o5
v1
n0.5181
v0
o0
o2
n-2.3
v0
n0.736
o44
o0
o2
n-1.15
o5
o0
v0
n-0.32
n2.0
o2
n-0.46
o5
o0
v1
n-2.27
n2.0
o2
o2
o2
o2
o2
n2.3578763059999996
o5
v1
n0.875
o5
v0
n3.0
o0
v0
n-0.522
o0
o2
n-2.26
v0
n1.1797199999999999
o44
o0
o2
n-1.13
o5
o0
v0
n-0.522
n2.0
o2
n-1.24
o5
o0
v1
n-1.216
n2.0
o2
o2
o2
o2
o2
n1.292518474
o5
v1
n0.86
o5
v0
n2.0
o0
v0
n-1.22
o0
o2
n-2.6
v0
n3.172
o44
o0
o2
n-1.326
o5
o0
v1
n-1.26
n2.0
o2
n-1.3
o5
o0
v0
n-1.22
n2.0
o2
o2
o2
o2
o2
n2.86575584
o5
v1
n0.5181
o5
v0
n2.0
o0
v0
n-0.32
o0
o2
n-2.3
v0
n0.736
o44
o0
o2
n-1.15
o5
o0
v0
n-0.32
n2.0
o2
n-0.46
o5
o0
v1
n-2.27
n2.0
o2
o2
o2
o2
o2
n-4.4309850064
v0
o5
v1
n0.876
o0
v0
n-1.23
o0
o2
n-2.468
v0
n3.03564
o44
o0
o2
n-1.234
o5
o0
v0
n-1.23
n2.0
o2
n-1.237
o5
o0
v1
n-1.21
n2.0
o2
o2
o2
o2
o2
n-5.515362816
v0
o5
v1
n1.23
o0
v0
n-0.751
o0
o2
n-2.68
v0
n2.01268
o44
o0
o2
n-0.384
o5
o0
v1
n-2.0
n2.0
o2
n-1.34
o5
o0
v0
n-0.751
n2.0
O8 0
o54
19
o2
n0.08297005
o5
v0
n4.0
o2
n-0.3486706213113
o5
v0
n2.0
o2
o2
n0.1311997986
v0
o5
v1
n-0.883
o2
o2
n0.05463144176
o5
v0
n3.0
o5
v1
n-0.587
o2
o2
o2
n1.5727483248
v0
o5
v1
n-0.124
o44
o0
o2
n-1.234
o5
o0
v0
n-1.23
n2.0
o2
n-1.237
o5
o0
v1
n-1.21
n2.0
o2
o2
o2
n0.05987098865
o5
v0
n2.0
o5
v1
n-0.46499999999999997
o44
o2
n-1.0
v0
o2
o2
o2
n2.5313045759999997
v0
o5
v1
n0.22999999999999998
o44
o0
o2
n-0.384
o5
o0
v1
n-2.0
n2.0
o2
n-1.34
o5
o0
v0
n-0.751
n2.0
o2
o2
o2
n-0.4275253414
o5
v0
n2.0
o5
v1
n-0.14
o44
o0
o2
n-1.326
o5
o0
v1
n-1.26
n2.0
o2
n-1.3
o5
o0
v0
n-1.22
n2.0
o2
o2
o2
n-0.6455426524800001
o5
v0
n2.0
o5
v1
n-0.4819
o44
o0
o2
n-1.15
o5
o0
v0
n-0.32
n2.0
o2
n-0.46
o5
o0
v1
n-2.27
n2.0
o2
o2
o2
n-3.498696279
o5
v0
n3.0
o5
v1
n1.5099999999999998
o44
o16
o5
v0
n2.0
o2
o2
o2
n-3.355449936
v0
o5
v1
n1.44
o44
o16
o5
v0
n2.0
o2
o2
o2
n-1.74653814576
o5
v0
n2.0
o5
v1
n0.927
o44
o16
o5
v0
n2.0
o2
o2
o2
n-0.9128945875
o5
v0
n3.0
o5
v1
n-0.125
o44
o0
o2
n-1.13
o5
o0
v0
n-0.522
n2.0
o2
n-1.24
o5
o0
v1
n-1.216
n2.0
o2
o2
o2
n-0.059317308484
o5
v0
n7.0
o5
v1
n0.18599999999999994
o44
o2
n-1.0
v0
o2
o2
o2
o2
n2.0579712
v0
o5
v1
n1.23
o0
o2
n-0.768
v1
n1.536
o44
o0
o2
n-0.384
o5
o0
v1
n-2.0
n2.0
o2
n-1.34
o5
o0
v0
n-0.751
n2.0
o2
o2
o2
o2
n1.7953748
v0
o5
v1
n0.876
o0
o2
n-2.474
v1
n2.9935400000000003
o44
o0
o2
n-1.234
o5
o0
v0
n-1.23
n2.0
o2
n-1.237
o5
o0
v1
n-1.21
n2.0
o2
o2
o2
o2
n-1.0433081
o5
v0
n3.0
o5
v1
n0.875
o0
o2
n-2.48
v1
n3.0156799999999997
o44
o0
o2
n-1.13
o5
o0
v0
n-0.522
n2.0
o2
n-1.24
o5
o0
v1
n-1.216
n2.0
o2
o2
o2
o2
n-0.49712249
o5
v0
n2.0
o5
v1
n0.86
o0
o2
n-2.652
v1
n3.34152
o44
o0
o2
n-1.326
o5
o0
v1
n-1.26
n2.0
o2
n-1.3
o5
o0
v0
n-1.22
n2.0
o2
o2
o2
o2
n-1.2459808
o5
v0
n2.0
o5
v1
n0.5181
o0
o2
n-0.92
v1
n2.0884
o44
o0
o2
n-1.15
o5
o0
v0
n-0.32
n2.0
o2
n-0.46
o5
o0
v1
n-2.27
n2.0
O9 0
o54
32
o2
o2
n-0.03206865631312
o5
v0
n3.0
o5
v1
n-1.587
o2
o2
n-0.1158494221638
v0
o5
v1
n-1.883
o2
o2
o2
n1.31836884348
o5
v0
n2.0
o5
v1
n0.86
o44
o0
o2
n-1.326
o5
o0
v1
n-1.26
n2.0
o2
n-1.3
o5
o0
v0
n-1.22
n2.0
o2
o2
o2
n1.1463023360000002
o5
v0
n2.0
o5
v1
n0.5181
o44
o0
o2
n-1.15
o5
o0
v0
n-0.32
n2.0
o2
n-0.46
o5
o0
v1
n-2.27
n2.0
o2
o2
o2
n0.31108700423011204
o5
v0
n2.0
o5
v1
n-1.4819
o44
o0
o2
n-1.15
o5
o0
v0
n-0.32
n2.0
o2
n-0.46
o5
o0
v1
n-2.27
n2.0
o2
o2
o2
n0.5822000524799998
v0
o5
v1
n-0.77
o44
o0
o2
n-0.384
o5
o0
v1
n-2.0
n2.0
o2
n-1.34
o5
o0
v0
n-0.751
n2.0
o2
o2
o2
n2.587404088
o5
v0
n3.0
o5
v1
n0.875
o44
o0
o2
n-1.13
o5
o0
v0
n-0.522
n2.0
o2
n-1.24
o5
o0
v1
n-1.216
n2.0
o2
o2
o2
n0.1141118234375
o5
v0
n3.0
o5
v1
n-1.125
o44
o0
o2
n-1.13
o5
o0
v0
n-0.522
n2.0
o2
n-1.24
o5
o0
v1
n-1.216
n2.0
o2
o2
o2
n0.059853547796
o5
v0
n2.0
o5
v1
n-1.1400000000000001
o44
o0
o2
n-1.326
o5
o0
v1
n-1.26
n2.0
o2
n-1.3
o5
o0
v0
n-1.22
n2.0
o2
o2
o2
n-4.441757255200001
v0
o5
v1
n0.876
o44
o0
o2
n-1.234
o5
o0
v0
n-1.23
n2.0
o2
n-1.237
o5
o0
v1
n-1.21
n2.0
o2
o2
o2
n-0.011033019378023996
o5
v0
n7.0
o5
v1
n-0.8140000000000001
o44
o2
n-1.0
v0
o2
o2
o2
n-1.6190408611195202
o5
v0
n2.0
o5
v1
n-0.07299999999999995
o44
o16
o5
v0
n2.0
o2
o2
o2
n-4.831847907839999
v0
o5
v1
n0.43999999999999995
o44
o16
o5
v0
n2.0
o2
o2
o2
n-5.283031381289999
o5
v0
n3.0
o5
v1
n0.5099999999999998
o44
o16
o5
v0
n2.0
o2
o2
o2
n-0.1950207922752
v0
o5
v1
n-1.124
o44
o0
o2
n-1.234
o5
o0
v0
n-1.23
n2.0
o2
n-1.237
o5
o0
v1
n-1.21
n2.0
o2
o2
o2
n-1.5805218816
v0
o5
v1
n1.23
o44
o0
o2
n-0.384
o5
o0
v1
n-2.0
n2.0
o2
n-1.34
o5
o0
v0
n-0.751
n2.0
o2
o2
o2
n-0.02784000972225
o5
v0
n2.0
o5
v1
n-1.4649999999999999
o44
o2
n-1.0
v0
o2
o2
o2
o2
n1.1337972053928
o5
v0
n2.0
o5
v1
n-0.14
o0
v1
n-1.26
o44
o0
o2
n-1.326
o5
o0
v1
n-1.26
n2.0
o2
n-1.3
o5
o0
v0
n-1.22
n2.0
o2
o2
o2
o2
n1.5727483248
v0
o5
v1
n-0.124
o0
o2
n-2.474
v1
n2.9935400000000003
o44
o0
o2
n-1.234
o5
o0
v0
n-1.23
n2.0
o2
n-1.237
o5
o0
v1
n-1.21
n2.0
o2
o2
o2
o2
n0.5938992402816001
o5
v0
n2.0
o5
v1
n-0.4819
o0
v1
n-2.27
o44
o0
o2
n-1.15
o5
o0
v0
n-0.32
n2.0
o2
n-0.46
o5
o0
v1
n-2.27
n2.0
o2
o2
o2
o2
n2.263978577
o5
v0
n3.0
o5
v1
n-0.125
o0
v1
n-1.216
o44
o0
o2
n-1.13
o5
o0
v0
n-0.522
n2.0
o2
n-1.24
o5
o0
v1
n-1.216
n2.0
o2
o2
o2
o2
n2.5313045759999997
v0
o5
v1
n0.22999999999999998
o0
o2
n-0.768
v1
n1.536
o44
o0
o2
n-0.384
o5
o0
v1
n-2.0
n2.0
o2
n-1.34
o5
o0
v0
n-0.751
n2.0
o2
o2
o2
o2
n-0.4275253414
o5
v0
n2.0
o5
v1
n-0.14
o0
o2
n-2.652
v1
n3.34152
o44
o0
o2
n-1.326
o5
o0
v1
n-1.26
n2.0
o2
n-1.3
o5
o0
v0
n-1.22
n2.0
o2
o2
o2
o2
n-0.6455426524800001
o5
v0
n2.0
o5
v1
n-0.4819
o0
o2
n-0.92
v1
n2.0884
o44
o0
o2
n-1.15
o5
o0
v0
n-0.32
n2.0
o2
n-0.46
o5
o0
v1
n-2.27
n2.0
o2
o2
o2
o2
n-1.944041914368
v0
o5
v1
n0.22999999999999998
o0
v1
n-2.0
o44
o0
o2
n-0.384
o5
o0
v1
n-2.0
n2.0
o2
n-1.34
o5
o0
v0
n-0.751
n2.0
o2
o2
o2
o2
n-0.9128945875
o5
v0
n3.0
o5
v1
n-0.125
o0
o2
n-2.48
v1
n3.0156799999999997
o44
o0
o2
n-1.13
o5
o0
v0
n-0.522
n2.0
o2
n-1.24
o5
o0
v1
n-1.216
n2.0
o2
o2
o2
o2
n-3.8909793555552006
v0
o5
v1
n-0.124
o0
v1
n-1.21
o44
o0
o2
n-1.234
o5
o0
v0
n-1.23
n2.0
o2
n-1.237
o5
o0
v1
n-1.21
n2.0
o2
o2
o2
o2
o2
n1.31836884348
o5
v0
n2.0
o5
v1
n0.86
o0
v1
n-1.26
o0
o2
n-2.652
v1
n3.34152
o44
o0
o2
n-1.326
o5
o0
v1
n-1.26
n2.0
o2
n-1.3
o5
o0
v0
n-1.22
n2.0
o2
o2
o2
o2
o2
n1.1463023360000002
o5
v0
n2.0
o5
v1
n0.5181
o0
v1
n-2.27
o0
o2
n-0.92
v1
n2.0884
o44
o0
o2
n-1.15
o5
o0
v0
n-0.32
n2.0
o2
n-0.46
o5
o0
v1
n-2.27
n2.0
o2
o2
o2
o2
o2
n2.587404088
o5
v0
n3.0
o5
v1
n0.875
o0
v1
n-1.216
o0
o2
n-2.48
v1
n3.0156799999999997
o44
o0
o2
n-1.13
o5
o0
v0
n-0.522
n2.0
o2
n-1.24
o5
o0
v1
n-1.216
n2.0
o2
o2
o2
o2
o2
n-4.441757255200001
v0
o5
v1
n0.876
o0
v1
n-1.21
o0
o2
n-2.474
v1
n2.9935400000000003
o44
o0
o2
n-1.234
o5
o0
v0
n-1.23
n2.0
o2
n-1.237
o5
o0
v1
n-1.21
n2.0
o2
o2
o2
o2
o2
n-1.5805218816
v0
o5
v1
n1.23
o0
v1
n-2.0
o0
o2
n-0.768
v1
n1.536
o44
o0
o2
n-0.384
o5
o0
v1
n-2.0
n2.0
o2
n-1.34
o5
o0
v0
n-0.751
n2.0
O10 0
o0
o54
33
o2
n0.1311997986
o5
v1
n-0.883
o2
n0.3318802
o5
v0
n3.0
o2
o2
n0.16389432528000003
o5
v1
n-0.587
o5
v0
n2.0
o2
o2
n1.5727483248
o5
v1
n-0.124
o44
o0
o2
n-1.234
o5
o0
v0
n-1.23
n2.0
o2
n-1.237
o5
o0
v1
n-1.21
n2.0
o2
o2
n2.5313045759999997
o5
v1
n0.22999999999999998
o44
o0
o2
n-0.384
o5
o0
v1
n-2.0
n2.0
o2
n-1.34
o5
o0
v0
n-0.751
n2.0
o2
o2
n-3.355449936
o5
v1
n1.44
o44
o16
o5
v0
n2.0
o2
o2
o2
n6.997392558
o5
v1
n1.5099999999999998
o5
v0
n4.0
o44
o16
o5
v0
n2.0
o2
o2
o2
n0.1197419773
v0
o5
v1
n-0.46499999999999997
o44
o2
n-1.0
v0
o2
o2
o2
n6.710899872
o5
v1
n1.44
o5
v0
n2.0
o44
o16
o5
v0
n2.0
o2
o2
o2
n3.49307629152
o5
v1
n0.927
o5
v0
n3.0
o44
o16
o5
v0
n2.0
o2
o2
o2
n0.059317308484
o5
v1
n0.18599999999999994
o5
v0
n7.0
o44
o2
n-1.0
v0
o2
o2
o2
n-0.8550506828
v0
o5
v1
n-0.14
o44
o0
o2
n-1.326
o5
o0
v1
n-1.26
n2.0
o2
n-1.3
o5
o0
v0
n-1.22
n2.0
o2
o2
o2
n-0.41522115938799997
o5
v1
n0.18599999999999994
o5
v0
n6.0
o44
o2
n-1.0
v0
o2
o2
o2
n-1.2910853049600002
v0
o5
v1
n-0.4819
o44
o0
o2
n-1.15
o5
o0
v0
n-0.32
n2.0
o2
n-0.46
o5
o0
v1
n-2.27
n2.0
o2
o2
o2
n-4.441757255200001
o5
v1
n0.876
o0
v1
n-1.21
o44
o0
o2
n-1.234
o5
o0
v0
n-1.23
n2.0
o2
n-1.237
o5
o0
v1
n-1.21
n2.0
o2
o2
o2
n-10.496088836999999
o5
v1
n1.5099999999999998
o5
v0
n2.0
o44
o16
o5
v0
n2.0
o2
o2
o2
n-2.7386837625
o5
v1
n-0.125
o5
v0
n2.0
o44
o0
o2
n-1.13
o5
o0
v0
n-0.522
n2.0
o2
n-1.24
o5
o0
v1
n-1.216
n2.0
o2
o2
o2
n-0.05987098865
o5
v1
n-0.46499999999999997
o5
v0
n2.0
o44
o2
n-1.0
v0
o2
o2
o2
n-1.5805218816
o5
v1
n1.23
o0
v1
n-2.0
o44
o0
o2
n-0.384
o5
o0
v1
n-2.0
n2.0
o2
n-1.34
o5
o0
v0
n-0.751
n2.0
o2
o2
o2
n-3.49307629152
v0
o5
v1
n0.927
o44
o16
o5
v0
n2.0
o2
o2
o2
o2
n2.63673768696
v0
o5
v1
n0.86
o0
v1
n-1.26
o44
o0
o2
n-1.326
o5
o0
v1
n-1.26
n2.0
o2
n-1.3
o5
o0
v0
n-1.22
n2.0
o2
o2
o2
o2
n1.5727483248
v0
o5
v1
n-0.124
o0
o2
n-2.468
v0
n3.03564
o44
o0
o2
n-1.234
o5
o0
v0
n-1.23
n2.0
o2
n-1.237
o5
o0
v1
n-1.21
n2.0
o2
o2
o2
o2
n2.2926046720000004
v0
o5
v1
n0.5181
o0
v1
n-2.27
o44
o0
o2
n-1.15
o5
o0
v0
n-0.32
n2.0
o2
n-0.46
o5
o0
v1
n-2.27
n2.0
o2
o2
o2
o2
n2.5313045759999997
v0
o5
v1
n0.22999999999999998
o0
o2
n-2.68
v0
n2.01268
o44
o0
o2
n-0.384
o5
o0
v1
n-2.0
n2.0
o2
n-1.34
o5
o0
v0
n-0.751
n2.0
o2
o2
o2
o2
n7.7622122639999995
o5
v1
n0.875
o5
v0
n2.0
o0
v1
n-1.216
o44
o0
o2
n-1.13
o5
o0
v0
n-0.522
n2.0
o2
n-1.24
o5
o0
v1
n-1.216
n2.0
o2
o2
o2
o2
n-0.4275253414
o5
v1
n-0.14
o5
v0
n2.0
o0
o2
n-2.6
v0
n3.172
o44
o0
o2
n-1.326
o5
o0
v1
n-1.26
n2.0
o2
n-1.3
o5
o0
v0
n-1.22
n2.0
o2
o2
o2
o2
n-0.6455426524800001
o5
v1
n-0.4819
o5
v0
n2.0
o0
o2
n-2.3
v0
n0.736
o44
o0
o2
n-1.15
o5
o0
v0
n-0.32
n2.0
o2
n-0.46
o5
o0
v1
n-2.27
n2.0
o2
o2
o2
o2
n-0.9128945875
o5
v1
n-0.125
o5
v0
n3.0
o0
o2
n-2.26
v0
n1.1797199999999999
o44
o0
o2
n-1.13
o5
o0
v0
n-0.522
n2.0
o2
n-1.24
o5
o0
v1
n-1.216
n2.0
o2
o2
o2
o2
o2
n1.31836884348
o5
v1
n0.86
o5
v0
n2.0
o0
v1
n-1.26
o0
o2
n-2.6
v0
n3.172
o44
o0
o2
n-1.326
o5
o0
v1
n-1.26
n2.0
o2
n-1.3
o5
o0
v0
n-1.22
n2.0
o2
o2
o2
o2
o2
n1.1463023360000002
o5
v1
n0.5181
o5
v0
n2.0
o0
v1
n-2.27
o0
o2
n-2.3
v0
n0.736
o44
o0
o2
n-1.15
o5
o0
v0
n-0.32
n2.0
o2
n-0.46
o5
o0
v1
n-2.27
n2.0
o2
o2
o2
o2
o2
n2.587404088
o5
v1
n0.875
o5
v0
n3.0
o0
v1
n-1.216
o0
o2
n-2.26
v0
n1.1797199999999999
o44
o0
o2
n-1.13
o5
o0
v0
n-0.522
n2.0
o2
n-1.24
o5
o0
v1
n-1.216
n2.0
o2
o2
o2
o2
o2
n-4.441757255200001
v0
o5
v1
n0.876
o0
v1
n-1.21
o0
o2
n-2.468
v0
n3.03564
o44
o0
o2
n-1.234
o5
o0
v0
n-1.23
n2.0
o2
n-1.237
o5
o0
v1
n-1.21
n2.0
o2
o2
o2
o2
o2
n-1.5805218816
v0
o5
v1
n1.23
o0
v1
n-2.0
o0
o2
n-2.68
v0
n2.01268
o44
o0
o2
n-0.384
o5
o0
v1
n-2.0
n2.0
o2
n-1.34
o5
o0
v0
n-0.751
n2.0
n-2.0279038680756
O11 0
o0
o54
4
o2
n2.1958
o5
o0
o16
o3
n1
v1
n1
n0.347
o2
n6.4706
o5
o0
o16
o3
n1
v1
n1
n1.42
o2
n-13.191
o5
o0
o16
o3
n1
v1
n1
n1.82
o2
n7.7906
o5
o0
o16
o3
n1
v1
n1
n2.232
n1.0
O12 0
o44
o54
4
o2
n-3.1511
o5
o0
o16
o3
n1
v1
n1
n0.387
o2
n-9.2173
o5
o0
o16
o3
n1
v1
n1
n1.34
o2
n-32.976
o5
o0
o16
o3
n1
v1
n1
n3.77
o2
n-86.791
o5
o0
o16
o3
n1
v1
n1
n7.85
O13 0
n0.0
x2
0 1.00000001
1 1.0
r
b
3
3
k1
0
G0 2
0 0
1 11.524417012948918
G1 1
0 0
G2 1
0 0
G3 1
1 0
G4 1
1 0
G5 2
0 0
1 0
G6 2
0 0
1 -2.0279038680756
G7 2
0 0
1 -0.6973412426226
G8 2
0 -2.0279038680756
1 0
G9 2
0 0
1 0
G10 2
0 -0.6973412426226
1 0
G11 1
1 0
G12 1
1 0
